Nb of jobs, Nb of Machines, Time seed, Machine seed, Upper bound, Lower bound
5,10,-1,-1,-1,-1
Times
36,87,10,53,54,81,54,33,6,24
3,50,6,92,90,52,9,40,37,84
69,55,5,36,54,88,86,20,5,97
81,11,98,94,50,95,83,19,8,91
60,87,38,53,22,35,69,60,23,68
Machines
10,9,5,4,6,1,2,7,3,8
6,8,2,4,7,9,5,10,1,3
8,9,7,6,4,5,3,10,1,2
10,2,8,7,6,3,5,4,9,1
9,5,2,10,1,7,8,4,6,3
